(set-logic QF_S)
(declare-fun var0 () Int)
(declare-fun var1 () Int)
(declare-fun var2 () String)
(declare-fun var3 () String)
(declare-fun var4 () String)
(declare-fun var5 () String)
(declare-fun var6 () Int)
(declare-fun var7 () Int)
(assert (str.contains (str.substr "" var0 var1) (str.at (str.replace var2 var3 "wYG") (str.len var4))))
(assert (str.in.re (str.at var5 var6) (re.* re.allchar)))
(assert (>= var7 var7))
(assert (>= (str.indexof var4 var2 var6) (str.to.int "UQ")))
(check-sat)